start_semester = 1;
no_of_grad_courses = 71;

preference = [3, 3, 3, 3, 3, 3, 3, 3, 3, 3, 3, 3, 3, 3, 3, 3, 3, 3, 3, 3, 3, 3, 3, 3, 3, 3, 3, 3, 3, 3, 3, 3, 3, 3, 3, 3, 3, 3, 3, 3, 3, 3, 3, 3, 3, 3, 3, 3, 3, 3, 3, 3, 3, 3, 3, 3, 3, 3, 3, 3, 3, 3, 3, 3, 3, 3, 3, 3, 3, 3, 3];

courses = {COMP6250, COMP6442, COMP6710, COMP8110, COMP8260, MATH6005, COMP6120, COMP8190, COMP6240, COMP6420, COMP6331, COMP6340, COMP8715, COMP8755, COMP8830, COMP6719, COMP6720, COMP8410, COMP8691, COMP8501, COMP8330, COMP8460, COMP8100, COMP8320, COMP8670, COMP8650, COMP6490, COMP7240, COMP7230, COMP8620, COMP6310, COMP6780, COMP8440, COMP8820, COMP8430, COMP7500, COMP6300, COMP8420, COMP6260, COMP8173, COMP8705, COMP6320, COMP6390, COMP6361, COMP6466, COMP6262, COMP6461, COMP6261, COMP8800, COMP8502, COMP6330, COMP8180, COMP8701, COMP6730, COMP8600, COMP6670, COMP6700, COMP6464, COMP6470, COMP8300, COMP6301, COMP6311, COMP6353, COMP6365, COMP7310, COMP8823, COMP6363, COMP6445, VCPG6001, VCPG6004, VCPG8001, None, COMP2100, COMP1110, COMP3120, COMP2120, COMP2130, COMP2400, COMP2420, COMP3310, COMP2410, ENGN2219, COMP1720, COMP3420, COMP3425, COMP3701, COMP4330, COMP4600, COMP4340, COMP4680, COMP4650, COMP1730, COMP1040, COMP2310, COMP1710, COMP1600, COMP3620, COMP3900, COMP3610, COMP3600, COMP4610, COMP2610, ENGN8534, COMP3702, COMP3300, COMP3670, COMP4300, COMP3530, COMP3650, COMP3630, COMP4450, VCUG3001, VCUG2004};

grad_courses = {COMP6250, COMP6442, COMP6710, COMP8110, COMP8260, MATH6005, COMP6120, COMP8190, COMP6240, COMP6420, COMP6331, COMP6340, COMP8715, COMP8755, COMP8830, COMP6719, COMP6720, COMP8410, COMP8691, COMP8501, COMP8330, COMP8460, COMP8100, COMP8320, COMP8670, COMP8650, COMP6490, COMP7240, COMP7230, COMP8620, COMP6310, COMP6780, COMP8440, COMP8820, COMP8430, COMP7500, COMP6300, COMP8420, COMP6260, COMP8173, COMP8705, COMP6320, COMP6390, COMP6361, COMP6466, COMP6262, COMP6461, COMP6261, COMP8800, COMP8502, COMP6330, COMP8180, COMP8701, COMP6730, COMP8600, COMP6670, COMP6700, COMP6464, COMP6470, COMP8300, COMP6301, COMP6311, COMP6353, COMP6365, COMP7310, COMP8823, COMP6363, COMP6445, VCPG6001, VCPG6004, VCPG8001};

undergrad_courses = {None, COMP2100, COMP1110, COMP3120, COMP2120, COMP2130, COMP2400, COMP2420, COMP3310, COMP2410, ENGN2219, COMP1720, COMP3420, COMP3425, COMP3701, COMP4330, COMP4600, COMP4340, COMP4680, COMP4650, COMP1730, COMP1040, COMP2310, COMP1710, COMP1600, COMP3620, COMP3900, COMP3610, COMP3600, COMP4610, COMP2610, ENGN8534, COMP3702, COMP3300, COMP3670, COMP4300, COMP3530, COMP3650, COMP3630, COMP4450, VCUG3001, VCUG2004};

list2 = [COMP6250, COMP6442, COMP6710, COMP8110, COMP8260, MATH6005];
list3 = [COMP6120, COMP8190];
list4 = [COMP6240, COMP6420];
list5 = [COMP6331, COMP6340];
list6 = [COMP8715, COMP8755, COMP8830];
list7 = [COMP6719, COMP6720, COMP8410, COMP8691, COMP8501, COMP8330, COMP8460, COMP8320, COMP8670, COMP8650, COMP6490, COMP7240, COMP7230, COMP8620, COMP6310, COMP6780, COMP8440, COMP8820, COMP8430, COMP7500, COMP6300, COMP6260, COMP8705, COMP6320, COMP6361, COMP6466, COMP6262, COMP6261, COMP8800, COMP8502, COMP6330, COMP8180, COMP8701, COMP6730, COMP8600, COMP6670, COMP6700, COMP6464, COMP6470, COMP8300, COMP6301, COMP6311, COMP6365, COMP7310, COMP8823, COMP6363, COMP6445];
list9 = [COMP6353, COMP6390, COMP6461];
list10 = [COMP8100, COMP8173, COMP8190, COMP8420, VCPG6001, VCPG6004, VCPG8001];
prereq = [None, None, None, None, None, None, None, None, None, COMP6700, COMP6710, None, None, None, None, None, None, None, None, None, None, None, None, None, None, None, None, COMP6700, COMP6710, None, None, None, None, None, None, None, COMP6250, COMP8701, None, None, None, None, None, None, None, None, None, None, None, None, None, None, None, None, None, None, None, None, None, None, None, None, None, None, None, None, None, None, None, None, None, None, None, None, None, None, None, None, None, None, None, COMP6710, None, None, None, None, None, None, None, None, COMP6710, COMP6310, COMP6442, None, None, None, None, None, None, None, None, None, None, None, None, None, None, None, COMP8705, COMP8260, None, None, None, None, None, None, None, COMP8260, None, None, COMP6442, None, None, None, None, None, COMP6442, None, None, COMP8260, None, None, None, None, None, COMP6700, COMP6710, None, None, None, None, None, None, None, None, None, None, None, None, None, None, None, None, COMP7240, COMP6240, COMP2400, COMP6730, COMP7230, COMP6710, None, None, None, None, None, None, None, None, None, None, None, None, COMP6340, None, None, COMP6420, None, None, COMP7500, None, None, None, None, None, None, None, None, None, None, None, None, None, None, None, None, None, None, None, None, None, None, None, None, None, None, None, None, None, None, None, None, None, None, None, None, None, None, COMP6700, COMP6710, None, None, None, None, None, None, None, COMP8600, None, None, None, None, None, None, None, None, None, None, None, None, None, None, None, None, None, None, None, None, None, None, None, None, None, None, None, None, None, None, None, None, None, None, None, COMP6320, None, None, None, None, None, None, None, None, COMP6300, None, None, COMP6700, COMP6710, None, None, None, None, None, None, None, None, None, None, None, None, None, None, None, None, None, None, None, None, None, None, None, None, None, None, None, None, None, None, None, None, None, None, None, None, None, None, None, None, COMP6301, None, None, COMP6340, None, None, COMP6420, None, None, None, None, None, None, None, None, None, None, None, COMP6670, None, None, None, None, None, None, None, None, None, None, None, None, None, None, None, None, None, None, None, None, None, None, None, None, None, None, None, None, None, None, None, None, None, None, None, COMP6710, None, None, None, None, None, None, None, None, COMP6442, None, None, None, None, None, None, None, None, None, None, None, None, None, None, None, None, None, COMP6700, COMP6710, None, None, None, None, None, None, None, None, None, None, None, None, None, None, None, None, COMP6700, COMP6710, None, None, None, None, None, None, None, None, None, None, None, None, None, None, None, None, COMP6442, None, None, COMP8260, None, None, COMP6445, None, None, COMP6340, None, None, COMP6420, None, None, COMP7500, None, None, None, None, None, None, None, None, None, None, None, None, None, None, None, None, None, None, None, None, None, None, None, None, None, None, None, None, None, None, None, None, None, None, None, None, None, None, COMP6670, None, None, None, None, None, None, None, None, None, None, None, None, None, None, None, None, None, None, None, None, None, None, None, None, None, None, COMP6700, COMP6710, None, None, None, None, None, None, None, None, None, None, None, None, None, None, None, None, None, None, None, None, None, None, None, None, None, None, None, None, None, None, None, None, None, None, COMP6700, COMP6442, None, None, None, None, None, None, None, None, None, None, None, None, None, None, None, None, None, None, None, None, None, None, None, None, None, None, None, None, None, None, None, None, None, None, None, None, None, None, None, None, None, None, None, None, None, None, None, None, None, None, None, None, None, None, None, None, None, None, None, None, None, None, None, None, None, None, None, None, None, None, None, None, None, None, None, None, None, None, None, VCPG6001, None, None, None, None, None, None, None, None];

corequisite = [None, MATH6005, None, None, None, None, COMP6442, None, None, None, None, None, COMP6442, None, None, None, None, None, None, None, None, None, None, None, None, None, None, None, None, None, None, None, None, None, None, None, COMP6700, None, None, None, None, COMP6262, None, None, None, None, None, None, None, None, COMP6300, None, None, None, None, COMP6710, None, None, None, None, None, None, None, None, None, None, None, None, None, None, None];

incompat = [None, None, None, None, None, None, None, None, None, COMP2100, None, None, None, None, None, None, None, None, COMP6700, None, None, COMP1110, None, None, None, None, None, COMP3120, None, None, None, None, None, None, None, None, None, None, None, None, None, None, None, None, None, None, None, None, None, None, None, None, None, None, COMP2120, None, None, COMP2130, None, None, COMP6311, None, None, None, None, None, None, None, None, None, None, None, COMP2400, None, None, COMP7240, None, None, None, None, None, COMP2420, None, None, None, None, None, None, None, None, COMP3310, None, None, None, None, None, None, None, None, COMP2410, None, None, None, None, None, None, None, None, COMP8830, None, None, None, None, None, None, None, None, None, None, None, None, None, None, None, None, None, COMP8715, None, None, None, None, None, None, None, None, ENGN2219, None, None, None, None, None, None, None, None, COMP1720, None, None, None, None, None, None, None, None, COMP3420, COMP3425, None, None, None, None, None, None, None, None, None, None, None, None, None, None, None, None, COMP3701, None, None, None, None, None, None, None, None, COMP4330, None, None, None, None, None, None, None, None, COMP4600, None, None, None, None, None, None, None, None, None, None, None, None, None, None, None, None, None, COMP4340, None, None, None, None, None, None, None, None, None, None, None, None, None, None, None, None, None, COMP4680, None, None, None, None, None, None, None, None, COMP4650, None, None, None, None, None, None, None, None, COMP2400, None, None, COMP6240, None, None, None, None, None, COMP1730, COMP6730, None, COMP1040, None, None, None, None, None, None, None, None, None, None, None, None, None, None, COMP2310, None, None, None, None, None, None, None, None, COMP1710, None, None, None, None, None, None, None, None, None, None, None, None, None, None, None, None, None, None, None, None, None, None, None, None, None, None, None, None, None, None, None, None, None, None, None, None, None, None, None, None, None, None, None, None, None, None, None, None, None, None, None, None, None, None, None, None, None, None, None, None, None, None, COMP1600, None, None, None, None, None, None, None, None, None, None, None, None, None, None, None, None, None, None, None, None, None, None, None, None, None, None, COMP3620, None, None, None, None, None, None, None, None, COMP3900, None, None, None, None, None, None, None, None, COMP3610, None, None, None, None, None, None, None, None, COMP3600, None, None, None, None, None, None, None, None, None, None, None, None, None, None, None, None, None, COMP4610, None, None, None, None, None, None, None, None, COMP2610, ENGN8534, None, None, None, None, None, None, None, None, None, None, None, None, None, None, None, None, COMP3702, None, None, None, None, None, None, None, None, COMP3300, None, None, None, None, None, None, None, None, None, None, None, None, None, None, None, None, None, None, None, None, None, None, None, None, None, None, COMP1730, None, None, COMP7230, None, None, COMP1040, None, None, None, None, None, None, None, None, None, None, None, COMP3670, None, None, None, None, None, None, None, None, COMP6710, None, None, None, None, None, None, None, None, None, None, None, None, None, None, None, None, None, None, None, None, None, None, None, None, None, None, COMP4300, None, None, None, None, None, None, None, None, None, None, None, None, None, None, None, None, None, COMP2130, None, None, None, None, None, None, None, None, COMP3530, None, None, None, None, None, None, None, None, COMP3650, None, None, None, None, None, None, None, None, None, None, None, None, None, None, None, None, None, None, None, None, None, None, None, None, None, None, COMP3630, None, None, None, None, None, None, None, None, COMP4450, None, None, None, None, None, None, None, None, VCUG3001, None, None, None, None, None, None, None, None, VCUG2004, None, None, None, None, None, None, None, None, None, None, None, None, None, None, None, None, None];

time_unit_available = [{1}, {1}, {1}, {1}, {1}, {1}, {1}, {1}, {1}, {1}, {1}, {1}, {2, 1}, {2, 1}, {4, 1}, {1}, {1}, {1}, {1}, {1}, {1}, {1}, {1}, {1}, {1}, {1}, {1}, {1}, {1}, {1}, {1}, {1}, {1}, {4, 1}, {1}, {1}, {1}, {1}, {1}, {1}, {1}, {1}, {1}, {1}, {1}, {1}, {1}, {1}, {2}, {1}, {1}, {1}, {1}, {1}, {1}, {1}, {1}, {1}, {1}, {1}, {1}, {1}, {1}, {1}, {1}, {1}, {1}, {1}, {1}, {1}, {1}];

offered_semester = [{odd_first, odd_second, even_first, even_second}, {odd_first, odd_second, even_first, even_second}, {odd_first, odd_second, even_first, even_second}, {odd_first, even_first}, {odd_first, odd_second, even_first, even_second}, {odd_first, even_first}, {odd_second, even_second}, {even_second}, {odd_second, even_second}, {odd_first, even_first}, {odd_first, even_first}, {odd_first, even_first}, {odd_first, odd_second, even_first, even_second}, {odd_first, odd_second, even_first, even_second}, {odd_first, odd_second}, {odd_first, even_first}, {odd_second, even_second}, {odd_first, odd_second}, {odd_second, even_second}, {even_first, even_second, odd_first, odd_second}, {odd_second}, {even_first}, {odd_first}, {even_first, even_second, odd_first, odd_second}, {odd_second, even_second}, {odd_first, even_first}, {odd_first, odd_second, even_second}, {odd_first, even_first}, {odd_second, even_second}, {odd_second}, {odd_second, even_second}, {odd_first, even_first}, {odd_first, even_first}, {odd_first, odd_second, even_first, even_second}, {odd_first, odd_second}, {even_first, even_second, odd_first, odd_second}, {odd_first, even_first}, {odd_first}, {odd_second, even_second}, {odd_second}, {even_first, even_second, odd_first, odd_second}, {odd_first, even_first}, {odd_second, even_second}, {odd_second, even_second}, {odd_second, even_second}, {odd_first, even_first}, {odd_second, even_second}, {odd_second, even_second}, {odd_first, odd_second, even_first, even_second}, {even_first, even_second, odd_first, odd_second}, {even_second}, {odd_first, even_first}, {even_first, even_second, odd_first, odd_second}, {odd_first, odd_second, even_second}, {odd_first, even_first}, {odd_second}, {even_first, even_second, odd_first, odd_second}, {even_first}, {odd_first, odd_second, odd_second, even_first, even_second, even_second}, {even_first, even_second, odd_first, odd_second}, {even_first, even_second, odd_first, odd_second}, {even_first, even_second, odd_first, odd_second}, {odd_second, even_first}, {even_first, even_second, odd_first, odd_second}, {even_first, even_second, odd_first, odd_second}, {even_first, even_second, odd_first, odd_second}, {even_first, even_second, odd_first, odd_second}, {odd_first, even_first}, {odd_first, even_first}, {even_first, even_second, odd_first, odd_second}, {even_first, even_second, odd_first, odd_second}];

